\* Problem: Unknown *\

Maximize
 obj: + xp_0_0 + xp_0_1 + xp_0_2 + xp_0_3 + xp_0_4 + xp_0_5 + xp_0_6
 + xp_1_0 + xp_1_1 + xp_2_0 + xp_2_1 + xp_2_2 + xp_2_3 + xp_2_4 + xp_3_0
 + xp_3_1 + xp_3_2 + xp_3_3 + xp_4_0 + xp_5_0 + xp_5_1 + xp_6_0 + xp_6_1
 + xp_7_0 + xp_7_1 + xp_8_0 + xp_8_1 + xp_9_0 + xp_10_0 + xp_11_0
 + xp_11_1 + xp_11_2 + xp_11_3 + xp_12_0 + xp_13_0 + xp_13_1 + xp_14_0
 + xp_14_1 + xp_15_0 + xp_16_0 + xp_16_1 + xp_17_0 + xp_17_1 + xp_17_2
 + xp_17_3 + xp_17_4 + xp_17_5 + xp_18_0 + xp_18_1 + xp_18_2 + xp_18_3
 + xp_18_4 + xp_18_5 + xp_19_0 + xp_19_1 + xp_19_2 + xp_19_3 + xp_19_4
 + xp_19_5 + xp_20_0 + xp_20_1 + xp_20_2 + xp_20_3 + xp_21_0 + xp_21_1
 + xp_21_2 + xp_21_3 + xp_21_4 + xp_22_0 + xp_22_1 + xp_22_2 + xp_22_3
 + xp_22_4 + xp_22_5 + xp_23_0 + xp_23_1 + xp_23_2 + xp_23_3

Subject To
 r_1: 0 xp_0_0 <= 29.4574468085106
 r_2: + xp_22_4 + xp_18_5 + xp_18_1 + xp_17_3 + xp_5_1 + xp_2_2
 <= 28.8106343283582
 r_3: + xp_23_3 + xp_21_2 + xp_18_4 + xp_6_1 <= 30
 r_4: + xp_18_2 + xp_15_0 <= 30
 r_5: + xp_18_0 <= 28.0263157894737
 r_6: + xp_18_3 <= 30
 r_7: + xp_20_3 <= 29.4574468085106
 r_8: + xp_22_2 + xp_11_3 + xp_3_3 + xp_3_2 + xp_2_1 <= 28.8106343283582
 r_9: + xp_23_2 + xp_17_2 + xp_11_1 + xp_3_1 <= 30
 r_10: + xp_3_0 <= 30
 r_11: + xp_18_3 + xp_11_2 <= 28.0263157894737
 r_12: + xp_11_0 <= 30
 r_13: 0 xp_0_0 <= 30
 r_14: + xp_21_3 + xp_19_1 + xp_14_0 + xp_0_3 + xp_0_1
 <= 28.8106343283582
 r_15: + xp_21_0 + xp_19_3 <= 29.4574468085106
 r_16: + xp_22_3 + xp_21_1 + xp_19_5 + xp_0_6 + xp_0_4 + xp_0_2
 <= 29.4574468085106
 r_17: + xp_0_0 <= 28.0263157894737
 r_18: + xp_21_2 + xp_4_0 <= 29.4574468085106
 r_19: + xp_19_0 <= 29.4574468085106
 r_20: + xp_21_4 + xp_19_4 + xp_19_2 + xp_14_1 + xp_0_5
 <= 29.4574468085106
 r_21: + xp_20_1 <= 28.8106343283582
 r_22: + xp_21_3 + xp_7_1 <= 28.8106343283582
 r_23: + xp_22_5 + xp_22_4 + xp_22_2 + xp_3_3 <= 28.8106343283582
 r_24: + xp_18_5 + xp_17_5 + xp_17_3 + xp_3_2 + xp_0_5 + xp_0_3
 <= 29.7154017857143
 r_25: 0 xp_0_0 <= 28.8106343283582
 r_26: + xp_18_1 + xp_0_1 <= 28.0263157894737
 r_27: + xp_11_3 <= 28.8106343283582
 r_28: + xp_20_3 + xp_19_1 <= 28.8106343283582
 r_29: + xp_20_2 <= 29.4574468085106
 r_30: + xp_2_0 <= 28.8106343283582
 r_31: + xp_23_3 + xp_23_2 + xp_18_4 + xp_17_2 + xp_6_1 + xp_3_1
 + xp_2_4 <= 29.7154017857143
 r_32: + xp_2_3 <= 30
 r_33: + xp_11_1 + xp_2_2 <= 30
 r_34: + xp_19_4 + xp_19_3 + xp_2_1 <= 30
 r_35: 0 xp_0_0 <= 29.4574468085106
 r_36: + xp_9_0 <= 28.8106343283582
 r_37: + xp_21_1 + xp_13_1 + xp_8_1 + xp_0_4 <= 29.7154017857143
 r_38: + xp_1_1 <= 30
 r_39: + xp_19_5 + xp_17_1 + xp_3_3 + xp_0_6 <= 30
 r_40: + xp_0_2 <= 28.0263157894737
 r_41: + xp_12_0 + xp_2_4 <= 29.7154017857143
 r_42: + xp_21_1 <= 29.7154017857143
 r_43: + xp_16_0 <= 29.7154017857143
 r_44: + xp_23_3 + xp_23_2 + xp_23_1 + xp_17_4 + xp_16_1
 <= 29.7154017857143
 r_45: + xp_17_5 + xp_17_3 + xp_17_2 + xp_3_2 + xp_3_1
 <= 29.7154017857143
 r_46: + xp_18_5 + xp_18_4 + xp_0_5 + xp_0_4 + xp_0_3
 <= 28.0263157894737
 r_47: + xp_22_1 + xp_16_1 + xp_13_1 <= 30
 r_48: + xp_13_0 <= 29.7154017857143
 r_49: + xp_17_4 <= 30
 r_50: 0 xp_0_0 <= 28.0263157894737
 r_51: + xp_8_1 + xp_1_1 <= 30
 r_52: + xp_8_0 <= 29.7154017857143
 r_53: + xp_1_0 <= 30
 r_54: + xp_18_2 + xp_0_6 <= 28.0263157894737
 r_55: 0 xp_0_0 <= 30
 r_56: + xp_19_5 <= 30
 r_57: + xp_22_3 <= 28.0263157894737
 r_58: + xp_22_5 + xp_17_5 + xp_5_0 <= 28.0263157894737
 r_59: + xp_22_0 + xp_17_1 <= 28.0263157894737
 r_60: + xp_23_1 + xp_17_4 + xp_6_0 <= 28.0263157894737
 r_61: + xp_23_0 + xp_22_1 <= 28.0263157894737
 r_62: + xp_17_0 <= 28.0263157894737
 r_63: + xp_23_3 + xp_22_4 + xp_17_3 + xp_11_2 + xp_6_1 + xp_5_1
 <= 28.0263157894737
 r_64: + xp_23_2 + xp_22_2 + xp_17_2 <= 28.0263157894737
 r_65: + xp_20_3 + xp_20_1 + xp_14_1 + xp_7_1 + xp_2_3 + xp_0_5
 <= 28.8106343283582
 r_66: + xp_21_4 + xp_20_2 + xp_19_4 + xp_7_0 <= 30
 r_67: + xp_19_2 + xp_10_0 <= 30
 r_68: + xp_20_0 <= 29.4574468085106

Bounds
 0 <= xp_0_0 <= 27.4950314794341
 0 <= xp_0_1 <= 12.9721484796526
 0 <= xp_0_2 <= 11.9582392701803
 0 <= xp_0_3 <= 1.0139092094723
 0 <= xp_0_4 <= 3.31014028374523
 0 <= xp_0_5 <= 1.0139092094723
 0 <= xp_0_6 <= 3.31014028374523
 0 <= xp_1_0 <= 20.4075444717347
 0 <= xp_1_1 <= 13.7872639042443
 0 <= xp_2_0 <= 24.0755506418362
 0 <= xp_2_1 <= 0.904568655619625
 0 <= xp_2_2 <= 6.92841490622373
 0 <= xp_2_3 <= 0.904568655619625
 0 <= xp_2_4 <= 0.904568655619625
 0 <= xp_3_0 <= 27.0874803874188
 0 <= xp_3_1 <= 3.03179058728509
 0 <= xp_3_2 <= 0.606358117457018
 0 <= xp_3_3 <= 0.606358117457018
 0 <= xp_4_0 <= 25.4472992565425
 0 <= xp_5_0 <= 22.2663868494747
 0 <= xp_5_1 <= 3.18091240706781
 0 <= xp_6_0 <= 17.1769269981662
 0 <= xp_6_1 <= 5.72564233272206
 0 <= xp_7_0 <= 16.4612217065759
 0 <= xp_7_1 <= 5.48707390219197
 0 <= xp_8_0 <= 17.2564498083429
 0 <= xp_8_1 <= 2.46520711547755
 0 <= xp_9_0 <= 18.2902463406399
 0 <= xp_10_0 <= 18.2902463406399
 0 <= xp_11_0 <= 26.4811222699618
 0 <= xp_11_1 <= 12.395601485591
 0 <= xp_11_2 <= 6.62028056749045
 0 <= xp_11_3 <= 12.395601485591
 0 <= xp_12_0 <= 17.1769269981662
 0 <= xp_13_0 <= 14.6123163699678
 0 <= xp_13_1 <= 2.08747376713825
 0 <= xp_14_0 <= 7.95228101766953
 0 <= xp_14_1 <= 7.95228101766953
 0 <= xp_15_0 <= 15.7455164149857
 0 <= xp_16_0 <= 13.2206671918756
 0 <= xp_16_1 <= 1.88866674169651
 0 <= xp_17_0 <= 27.6043720332868
 0 <= xp_17_1 <= 5.52683530728032
 0 <= xp_17_2 <= 2.2166950235351
 0 <= xp_17_3 <= 4.4333900470702
 0 <= xp_17_4 <= 2.2166950235351
 0 <= xp_17_5 <= 2.2166950235351
 0 <= xp_18_0 <= 20.5069546047362
 0 <= xp_18_1 <= 1.97812659300501
 0 <= xp_18_2 <= 3.31014028374523
 0 <= xp_18_3 <= 12.5546603465055
 0 <= xp_18_4 <= 1.97812659300501
 0 <= xp_18_5 <= 1.97812659300501
 0 <= xp_19_0 <= 28.3996067553343
 0 <= xp_19_1 <= 1.91848448537249
 0 <= xp_19_2 <= 5.75545345611747
 0 <= xp_19_3 <= 1.91848448537249
 0 <= xp_19_4 <= 1.91848448537249
 0 <= xp_19_5 <= 1.91848448537249
 0 <= xp_20_0 <= 26.8091439315198
 0 <= xp_20_1 <= 6.94830222904847
 0 <= xp_20_2 <= 5.45724291795486
 0 <= xp_20_3 <= 1.81908097265162
 0 <= xp_21_0 <= 28.0815155146275
 0 <= xp_21_1 <= 4.80117973399713
 0 <= xp_21_2 <= 1.60039324466571
 0 <= xp_21_3 <= 3.20078648933142
 0 <= xp_21_4 <= 1.60039324466571
 0 <= xp_22_0 <= 22.6640141409193
 0 <= xp_22_1 <= 1.40158621922397
 0 <= xp_22_2 <= 9.42345300593839
 0 <= xp_22_3 <= 1.40158621922397
 0 <= xp_22_4 <= 1.40158621922397
 0 <= xp_22_5 <= 1.40158621922397
 0 <= xp_23_0 <= 27.8827084891858
 0 <= xp_23_1 <= 5.60634487689588
 0 <= xp_23_2 <= 2.80317243844794
 0 <= xp_23_3 <= 1.40158621922397

End
